VER
4

OBJSENSE
MIN

VAR
24 1
F 24

CON
51 4
CRE 25
SVECQRE 21
L+ 1
L= 4

OBJACOORD
2
0 1.0
1 1.0

OBJBCOORD
0.7664212652820912

ACOORD
126
0 0 1.0
1 2 1.0
2 3 1.0
3 4 1.0
4 5 1.0
5 6 1.0
6 7 1.0
7 8 1.0
8 9 1.0
9 10 1.0
10 11 1.0
11 12 1.0
12 13 1.0
13 2 1.0
13 3 1.0
13 4 1.0
13 14 1.0
14 2 1.0
14 3 1.0
14 4 1.0
14 14 1.0
15 2 1.0
15 3 1.0
15 4 1.0
15 14 1.0
16 5 1.0
16 6 1.0
16 7 1.0
16 16 1.0
17 5 1.0
17 6 1.0
17 7 1.0
17 16 1.0
18 5 1.0
18 6 1.0
18 7 1.0
18 16 1.0
19 8 1.0
19 9 1.0
19 10 1.0
19 19 1.0
20 8 1.0
20 9 1.0
20 10 1.0
20 19 1.0
21 8 1.0
21 9 1.0
21 10 1.0
21 19 1.0
22 11 1.0
22 12 1.0
22 13 1.0
22 23 1.0
23 11 1.0
23 12 1.0
23 13 1.0
23 23 1.0
24 11 1.0
24 12 1.0
24 13 1.0
24 23 1.0
25 1 1.0
26 14 1.0
27 15 1.0
28 16 1.0
29 17 1.0
30 18 1.0
31 19 1.0
32 20 1.0
33 21 1.0
34 22 1.0
35 23 1.0
36 2 1.0
36 3 1.0
36 4 1.0
36 14 1.0
38 5 1.0
38 6 1.0
38 7 1.0
38 16 1.0
41 8 1.0
41 9 1.0
41 10 1.0
41 19 1.0
45 11 1.0
45 12 1.0
45 13 1.0
45 23 1.0
46 2 -1.0
46 3 -1.0
46 4 -1.0
46 5 -1.0
46 6 -1.0
46 7 -1.0
46 8 -1.0
46 9 -1.0
46 10 -1.0
46 11 -1.0
46 12 -1.0
46 13 -1.0
46 14 -0.9946005211508199
46 15 0.014288533491466303
46 16 -0.981094268998965
46 17 0.06184381622458337
46 18 0.11572231044406167
46 19 -0.6458308558981758
46 20 0.08192575394903563
46 21 0.15329968476436762
46 22 0.6635136865176777
46 23 -0.3784743539520393
47 5 1.0
47 8 1.0
47 11 1.0
47 14 1.0
48 2 1.0
48 9 1.0
48 12 1.0
48 16 1.0
49 3 1.0
49 6 1.0
49 13 1.0
49 19 1.0
50 4 1.0
50 7 1.0
50 10 1.0
50 23 1.0

BCOORD
5
46 -0.5
47 0.005399478849180103
48 0.018905731001035007
49 0.35416914410182415
50 0.6215256460479607
